peakDumbCharging = 11100; 
Machine = anon_enum(16); 
machineSpeed = [3700,3700,3700,3700,3700,3700,3700,3700,3700,3700,3700,3700,3700,3700,3700,3700]; 
machineLoad = [3700,3700,3700,3700,3700,3700,3700,3700,3700,3700,3700,3700,3700,3700,3700,3700]; 
Car = anon_enum(7); 
demandCar = [7680,11480,8560,4080,14520,3160,8800]; 
arrivalCar = [64,59,57,46,45,44,42]; 
departureCar = [69,63,62,49,50,46,46]; 
